plugin list


units		metal
dimension	3
boundary	p p p

atom_style  full
neighbor	2.0 bin

# create geometry

lattice		sc 10
region		box block 0 10 0 10 0 10
create_box	2 box
create_atoms 1 random 100 341341 box
create_atoms 2 random 100 127569 box

mass         1 1.0
mass         2 1.0

# LJ potentials and KSPACE

pair_style	lj/cut/coul/long 8.5
kspace_style ewald 1e-6

pair_coeff	* * 0.01 3.4 8.5

set type 1 charge -1
set type 2 charge 1

# # initial velocities

velocity	all create 300 482748 
fix		    1 all nve

# save positions info via dump
dump dump0 all custom 1 ref.lammpstrj id type x y z fx fy fz
dump_modify dump0 sort id format line "%d %d %20.15g %20.15g %20.15g %20.15g %20.15g %20.15g"



# run

thermo  1
run     10

kspace_style ewald/test 1e-6

dump dump1 all custom 1 test.lammpstrj id type x y z fx fy fz
dump_modify dump1 sort id format line "%d %d %20.15g %20.15g %20.15g %20.15g %20.15g %20.15g"

rerun ref.lammpstrj dump x y z fx fy fz
