plugin list


units		metal
dimension	3
boundary	p p p

atom_style	atomic
neighbor	2.0 bin

# create geometry

lattice		sc 10
region		box block 0 10 0 10 0 10
create_box	1 box
create_atoms	1 box

mass		1 39.95

# LJ potentials

pair_style	lj/cut 8.5
pair_coeff	* * 0.01 3.4 8.5

# initial velocities

velocity	all create 300 482748 
fix		    1 all nve

# save positions info via dump
dump dump0 all custom 1 ref.lammpstrj id type x y z

compute test1 all test/scalar/atom 
dump dump1 all custom 1 test_scalar.lammpstrj id type c_test1
compute test2 all test/coord/atom 
dump dump2 all custom 1 test_coord.lammpstrj id type c_test2[*]

# run

thermo  1
run		100
